job_count = 22 ;
duration = [|13, 2|3, 8|10, 2|5, 5|4, 9|7, 2|5, 4|17, 6|13, 8|3, 4|12, 8|18, 7|12, 2|8, 2|10, 2|7, 9|9, 4|15, 2|18, 4|12, 6|5, 5|19, 2|] ;
machine_count = 2 ;
cost = [|10, 22|17, 35|15, 21|16, 31|17, 30|13, 37|14, 22|17, 27|11, 26|16, 31|19, 24|18, 25|14, 34|11, 27|13, 22|10, 30|19, 39|11, 22|16, 20|10, 32|19, 39|10, 35|] ;
deadline = [55, 55, 55, 55, 55, 55, 55, 55, 55, 55, 55, 55, 55, 55, 55, 55, 55, 55, 55, 55, 55, 55] ;
release = [0, 0, 0, 0, 0, 0, 0, 0, 0, 0, 0, 0, 0, 0, 0, 0, 0, 0, 0, 0, 0, 0] ;
resource = [|9, 9|3, 3|2, 2|6, 6|1, 1|6, 6|9, 9|8, 8|1, 1|1, 1|4, 4|6, 6|5, 5|5, 5|1, 1|1, 1|7, 7|6, 6|4, 4|9, 9|7, 7|4, 4|] ;
capacities = [10, 10] ;
